JulietBench/Juliet_Based_Patch_Bench/FFmpeg/CWE-189-Numeric-Errors/CVE_2013_7014_86736f59d6a527d8bc807d09b93f971c0fe0bb07/Resultadd_bytes_c_SnippetEQ.smt2
; benchmark generated from python API
(set-info :status unknown)
(declare-fun R () (_ BitVec 64))
(declare-fun rdi () (_ BitVec 64))
(assert
 (let (($x504 (= (_ bv1 64) R)))
 (let ((?x6 ((_ extract 31 0) rdi)))
 (let ((?x190 (bvsub ?x6 (_ bv8 32))))
 (let ((?x219 ((_ sign_extend 32) ?x190)))
 (let (($x192 (bvsgt (_ bv0 64) ?x219)))
 (let (($x505 (and $x192 $x504)))
 (let (($x497 (= (_ bv50 64) R)))
 (let (($x195 (bvsle (_ bv0 64) ?x219)))
 (let (($x255 (bvsgt (_ bv8 64) ?x219)))
 (let (($x502 (and $x255 $x195 $x497)))
 (let (($x493 (= (_ bv58 64) R)))
 (let (($x112 (bvsle (_ bv8 64) ?x219)))
 (let (($x482 (bvsgt (_ bv16 64) ?x219)))
 (let (($x501 (and $x482 $x112 $x195 $x493)))
 (let (($x480 (= (_ bv66 64) R)))
 (let (($x474 (bvsle (_ bv16 64) ?x219)))
 (let (($x492 (bvsgt (_ bv24 64) ?x219)))
 (let (($x500 (and $x492 $x474 $x112 $x195 $x480)))
 (let (($x506 (or $x500 $x501 $x502 $x505)))
 (let ((?x7 ((_ sign_extend 32) ?x6)))
 (let ((?x9 (bvadd ?x7 (_ bv18446744073709551608 64))))
 (let (($x37 (bvuge ?x9 (_ bv0 64))))
 (let (($x36 (bvult ?x9 (_ bv8 64))))
 (let (($x498 (and $x36 $x37 $x497)))
 (let (($x105 (bvuge ?x9 (_ bv8 64))))
 (let (($x34 (bvult ?x9 (_ bv16 64))))
 (let (($x495 (and $x34 $x105 $x37 $x493)))
 (let (($x216 (bvuge ?x9 (_ bv16 64))))
 (let (($x214 (bvult ?x9 (_ bv24 64))))
 (let (($x479 (and $x214 $x216 $x105 $x37 $x480)))
 (let (($x499 (or $x479 $x495 $x498)))
 (and $x499 $x506)))))))))))))))))))))))))))))))))
(check-sat)
